PE orthorhombic (exp cell, CASTEP PE.cel
    1.000000000000000     
     7.1210000000000004    0.0000000000000000    0.0000000000000000
     0.0000000000000000    4.8510000000000000    0.0000000000000000
     0.0000000000000000    0.0000000000000000    2.5480000000000000
  H               C             
     8     4
Direct
     0.1947046305529424    0.0329566896649476    0.2499999479682330
     0.0178104350641350    0.2864032198923152    0.2499999432926410
     0.8052954865780949    0.9670433447945779    0.7499999324720972
     0.9821898176313426    0.7135965547274802    0.7499999294854397
     0.3052954204749703    0.5329568185055592    0.7500000521217807
     0.4821896777299033    0.7864034079321454    0.7500000493719720
     0.6947045006579077    0.4670432894171824    0.2500000625822970
     0.5178101776997213    0.2135967075551483    0.2500000603449201
     0.0411346941823680    0.0615156019063101    0.2499997970233648
     0.9588653530739308    0.9384843088731130    0.7500001017692483
     0.4588652023642409    0.5615156687059670    0.7500001870806218
     0.5411346039904432    0.4384843880252531    0.2499999364873835
 
  0.00000000E+00  0.00000000E+00  0.00000000E+00
  0.00000000E+00  0.00000000E+00  0.00000000E+00
  0.00000000E+00  0.00000000E+00  0.00000000E+00
  0.00000000E+00  0.00000000E+00  0.00000000E+00
  0.00000000E+00  0.00000000E+00  0.00000000E+00
  0.00000000E+00  0.00000000E+00  0.00000000E+00
  0.00000000E+00  0.00000000E+00  0.00000000E+00
  0.00000000E+00  0.00000000E+00  0.00000000E+00
  0.00000000E+00  0.00000000E+00  0.00000000E+00
  0.00000000E+00  0.00000000E+00  0.00000000E+00
  0.00000000E+00  0.00000000E+00  0.00000000E+00
  0.00000000E+00  0.00000000E+00  0.00000000E+00
