C  H  O 
 1.0000000000000000
    14.1290832336078900    0.0000000000000000    0.0000000000000000
     0.0000000000000000   14.1290832336078900    0.0000000000000000
     0.0000000000000000    0.0000000000000000   14.1290832336078900
 C   H   O  
 100 162  40
Direct
  0.7721904325899833  0.9487639493653384  0.8062518123939373
  0.2046270589107786  0.9424747462153915  0.5611674121484260
  0.3641805982933094  0.4412304527805102  0.5486217173456650
  0.4042805711471098  0.2729827718621519  0.5269143160237667
  0.5518865343774819  0.2402679863878602  0.6025703735100938
  0.3580712382292197  0.3772967939528696  0.3790191600389655
  0.4579999278638781  0.3893152599590718  0.3295824143758973
  0.4346200342002116  0.4239629394657958  0.2286806915481901
  0.4326082035619589  0.5479402424542903  0.1175120080956963
  0.5043661428427898  0.2881009825734842  0.3319348964967739
  0.5778332796240330  0.2445956070933923  0.2607327465182412
  0.5362051744849190  0.2161442574100858  0.1651070745850942
  0.6079462551468277  0.1536024148622898  0.3151582166318690
  0.5521411218933286  0.0022235963145828  0.3609618960037080
  0.6636363395486927  0.3114970594238374  0.2412471884697221
  0.7349712141090790  0.2779094013538685  0.1722996052407343
  0.7876092477539633  0.1910513249121786  0.1931705781111568
  0.7439786370163497  0.3174071462078338  0.0783741797945372
  0.6526143807072728  0.3812433457874992 -0.0472058286648888
  0.0068541867571810  0.3973457491113484  0.6011477121944149
  0.0061881462819934 -0.0642933067085924  0.7592311496968539
  0.0100521242708188  0.1028717071214595  0.7634557663498102
 -0.0300207525335371  0.1727308752082866  0.9207543668754707
  0.0233127001838985  0.1783069809724160  0.8317306948482607
  0.5192257385804867  0.4643140497132985  0.3771944049834815
  0.2808187579979922  0.4812985883059839  0.8379574034560099
  0.2310758180312947  0.3351669919636542  0.5035490221978668
  0.3411543916051002  0.3541288769117777  0.4863277496654600
 -0.0303365287430512  0.5707990842629768  0.5646238252123085
 -0.0581572661132181  0.4839603580338077  0.6284966470716943
 -0.0474980108506946  0.4988612059946045  0.7359863294402803
 -0.0175658202648509  0.3230085605774868  0.5250620646588293
 -0.1667476335406249  0.4675963151309837  0.6172656773880835
  0.1353517284392785  0.3068075842015082  0.3473912227968663
  0.0138549455637754  0.2827365032686842  0.2318346944997122
 -0.1635854003771614  0.7563073587506433  0.6584300578379877
  0.1873292360784282  0.7186386542427708  0.3575972064850492
 -0.0539160007765033  0.5375443851190296  0.2465957059132863
  0.0003371126114614  0.7124240095440976  0.6640176431068028
  0.1371235436916100  0.6032097087394720  0.6444973777526289
  0.0495304218045846  0.6430204316885992  0.5946748811634359
  0.0824990090311265  0.7038921618797732  0.5073021533215906
  0.2544922500672893  0.3253639390133283  0.7850921803272687
  0.0671008920549351  0.2515107802246141  0.5050557945816427
  0.0261280575441082  0.6439027723824376  0.3493061529991782
  0.1607798804817225  0.5584411686817851  0.4247105263295063
  0.0914791885967132  0.2540176860199629  0.8097494585324282
  0.1147899963905534  0.6547806630187492  0.4133627152630699
 -0.0972561747233619  0.2583220507837211  0.5659115624969452
  0.5286078738423279  0.8202243282571128  0.0006488496147459
 -0.0524348309322196  0.3673983687346590  0.4331848329889374
  0.6029529335487597  0.9188438622760500  0.8778533203922175
  0.2739090675103097  0.8530292287652225  0.4363056397572081
  0.3302142272441394  0.6920664923343416  0.4809987166857157
  0.2868294218616963  0.7504923575091272  0.4007939820020550
  0.3610475733070288  0.7477416618220573  0.3209914871855791
 -0.1813430669492051  0.1175499662889117  0.5355623977136905
  0.2213388224876245  0.1626866718446281  0.7224328278999832
  0.7190537512996962  0.4305763580060152  0.5011212519313051
  0.2292368965218417  0.1912083157793641  0.9003009148021344
  0.8263739808165331  0.8015190965790180  0.1559500279654117
  0.7765961723083233  0.8971693978619860  0.1447458069367515
  0.7832541044294012  0.7574536102170036  0.2469145670302541
 -0.2284929430530944  0.7956877992669019  0.4112645359726768
 -0.0622472248954681  0.8112231855803502  0.1738817177427737
 -0.0020350391955721  0.8880057217641036  0.1184388985949949
 -0.0233653167869846  0.8954050313705773  0.0129464688967042
 -0.0336530621112799  0.0436581319198437  0.3284258666331140
  0.8230543895483987  0.7305466419187583  0.0714647108116011
  0.1047310613895825  0.8606338546406023  0.1328968431021381
  0.2804796113354163  0.8818694736787080  0.1320670146332098
  0.1949694643166108  0.8898870462052426 -0.0218442630227653
  0.1626385751412955  0.2698840629581397  0.4467275168987500
  0.2323319778395109  0.7670749749810989  0.8700714851760881
  0.1728355812089165  0.0231439535208928  0.0993103757062859
 -0.0239857042317794 -0.0182035928688157  0.1711246182713888
  0.3060023895546930  0.1013030297822356  0.1948824906723103
  0.1922229269803843  0.1932926687393329  0.0988430078418182
  0.2515929390657658  0.1009892325173898  0.0997095613147832
  0.2008306256766385  0.3615876035292639  0.0959890685081119
  0.2008058334677512  0.2321604190137367  0.8026446028384117
  0.1890485616385837  0.9164245303456923  0.0844339798794279
  0.3250564413974217  0.0913412899177356  1.0149069682963756
  0.5313637311810148  0.8249361994515535  0.6096910376053035
  0.6357458883784051  0.9229407450187026  0.6977763972856130
  0.3868536737897316 -0.0058608996000026  0.7375181404292471
  0.3315572929095705  0.1647311719372489  0.9312079731361068
  0.6014281935826279  0.8145123314442440  0.9193390088323971
  0.8988392057203415  0.5105664736879488  0.9741836397241759
  0.6504616831665284  1.0696720079119444  0.7974708254272912
  0.2056181650602145  0.1706216115438537  0.4330977445364962
  0.6610833472372273  0.6475837496467793  0.0602454461910526
  0.7369463529135439  0.7024676942460168  0.0065830447084598
  0.6647231515814311  0.9603593775168463  0.7964592271718696
  0.7030726251674274  0.7924604576939439 -0.0474167609962331
  0.6096911100070944  0.6171634557907236  0.7419212341992797
  0.5640016202067335  0.7387117476698423  0.8494420172729824
  0.3899589909951285  0.2511742187796598 -0.0387949945592965
  0.3875160577103787  0.1182840260965029  0.8492036335533286
  0.7895839057691769  0.6337404564923168 -0.0626713675867524
  0.3417390395525142  0.7910754668711028  0.2604948986956825
  0.6328645122802607  0.3794046947597792  0.2190665714451780
  0.3955076450299371  0.7263049643044404  0.5058135074588175
  0.5369563076993935  0.2854511255962176  0.4025576971875875
  0.4450213529267513  0.2374419062724148  0.3337371666745121
  0.3690460879354723  0.6742518576747708  0.2970610911233398
  0.2848142792588312  0.6818917092556848  0.5425678081228029
  0.6996599582748404  0.3235582472289658  0.3094179397949246
  0.5901077428280660  0.1789080810651480  0.1232114253845489
  0.8501411117645497  0.1818775530015924  0.1483845474574972
  0.4739582672479076  0.1710911518659558  0.1712396800660725
  0.5088300886229894  0.0246659613286941  0.4215554274459888
  0.8083943385240682  0.1885658059651435  0.2681334790362079
  0.4302943813739237  0.7719640350514626  0.3465432104410435
  0.7439627749343326  0.1270427880945421  0.1818379768716222
  0.6237415569459057 -0.0153574132287123  0.3845791922192119
  0.5175667886030083  0.2803217964896341  0.1261944405697341
  0.3518534284131549  0.6233086161374363  0.4527844163075550
  0.1576509004411770  0.1233363281475119  0.3950247084409034
  0.7176066178762419  0.3977603364501318 -0.0856731870370819
  0.2043970288844426  0.6806733875797435  0.2915129372141141
  0.6103492004320138  0.2822684457470159  0.6313317816569883
  1.1915717499019387  0.9344094922302574  0.6370412429134559
 -0.1319934800914373  0.0714752660724410  0.5739757511949126
  0.0913831416072102  0.2241524235770364  0.5734482801734588
  0.0349965162746203  0.1903930948051854  0.4691931952281935
  0.2202127053173364  0.1409270235992365  0.5030109372784616
  0.2736255675005998  0.1735587364023877  0.3960111887564894
  0.0054952178490977  0.1094456802318469  0.3163549532222196
  0.0167126677731378  0.2381495021794179  0.1690650654629683
 -0.0583479144547281  0.2812639038043169  0.2596025152706621
  0.2255824782973794  0.3111760394190266  0.5772427137652655
  0.2006181623595853  0.4062376799743173  0.5030188814476786
  0.3500611947668200  0.4269392151105750  0.6236091239177872
  0.4378604547702671  0.4631816184577857  0.5420003253886360
  0.3196509346963575  0.5000545183590942  0.5262821058675663
  0.0342805380056938  0.3552269528714931  0.2150510953600728
  0.5190883501321397 -0.0584775326342839  0.3261110612965905
  0.5139023255993930  0.2044036884799791  0.6598401727393151
  0.5428223819761070  0.4372135806958980  0.4454337778950149
  0.3204656329520328  0.3241073745610901  0.3365620381205245
  0.1424805996411610  0.7472368702951839  0.5308616784660429
  0.5818627031425191  0.4818174947845651  0.3348382861529015
  0.3559487469545264  0.5404157271167407  0.1079307837187602
  0.4697013719772625  0.5071707474451115  0.0628172368993425
  0.4797720310438868  0.5301768963927275  0.3886902680597076
  0.4525491670295348  0.6226565736595462  0.1134291199627705
 -0.2375216137120039  0.1405739168332820  0.5834621934050447
  1.1374574638660846  0.9553136217350461  0.5241411105395712
  0.3188603524443265  0.4438186402208493  0.3688029462043313
 -0.0803181434338164  0.3132488686413349  0.3857750998453257
  0.1499352958371561  0.7833246264705203  0.3343263807288062
  0.2235976299696202  0.5670258686611522  0.4678285185036330
  0.1816052086744257  0.5280723247940989  0.3566410749973718
  0.1147751354793040  0.5072597132411509  0.4594030289405389
  0.8974665222605365  0.5960032779203442  0.2334124582131138
  0.9119777607925567  0.4871433717674652  0.2949307580039519
 -0.0075645084587232 -0.0608356488103557  0.6831323800086316
 -0.0345969857378153  0.5012500195702824  0.1810835117668613
  0.2531045359157725  1.0013839729630374  0.5481798925326226
 -0.0108069499397561  0.5421986696820709  0.4954396473775620
  0.1688196624834076  0.5454092785678452  0.6041195341962424
  0.1903963599530196  0.6592101621115746  0.6525498792958434
  0.1219450182917965  0.5779776396789907  0.7158058143719552
 -0.1604177008635150  0.7467627459953878  0.7352348637528794
 -0.1988537467667522  0.8222253676147756  0.6387473790696239
  0.7978372081544903  0.6964275101215432  0.6269369416989770
 -0.0934813044159947  0.6136864254325419  0.5496594043962921
  0.0266454050384554  0.5033762513086525  0.7566763882499257
 -0.0786985665312650  0.4381315170271569  0.7726082172795981
 -0.0848380807621116  0.5623042945971840  0.7599952155291716
  0.7036811334786996  0.4491047961796320  0.4276511056269580
  0.7302371226851312  0.3538626630019557  0.5078399757908907
  0.6611987677510177  0.4522739856811293  0.5477100618587843
  0.0186644639563034  0.3582564209810307  0.6665666184731061
  0.0748100777675987  0.4288839458118934  0.5818252085753925
  0.0060388829130853  0.4041743543493403  0.3986278758825130
 -0.2117602409384158  0.0807936251373593  0.4748411946009858
  0.5786006695111595  0.1884118632408511  0.5512004253505519
  0.0258309339413150  0.7536827812563048  0.4881922927232760
 -0.1076453200873950  0.4201576348504993  0.4453687287595539
  0.1311295084048698  0.3511537982254925  0.0638822024774710
  0.1186183364744078  0.0447133929836310  0.0482993430984953
  0.5337040815764396  0.6034420108264376  0.7472534881073225
  0.8009059778960713  0.9346037913542984  0.0817743028644673
 -0.1576482641136872  0.8099536999240875  0.4398506723793812
 -0.2438717883542923  0.7200601224529499  0.4162732731680776
  0.7190706347498041  0.8373850286245372  0.4501644628941364
 -0.0303140989160329  0.7420460051849737  0.1572043070368969
 -0.0488396760243626  0.8223862597840120  0.2498171266802403
 -0.1491774618675625  0.6641762495506995  0.1009515604301480
  0.0017002011197101  0.8314853965468827 -0.0233986930218588
 -0.0196227965547892  0.0166541544875303  0.3998096652979767
  0.8901482591923032  0.0560536264651359  0.3200694834744059
  0.1107814586871694  0.7855899178317893  0.1127428124014086
  0.1203354883111094  0.8632171464873377  0.2090208918560823
  0.2772114661321058 -0.0984032400933753  0.2068198132758043
  0.3437012206299125 -0.0848419282407085  0.1016198808048547
  0.2878048548842558  0.8051580242275020  0.1253510473673369
  0.0125989564930922  0.9560082914481646  0.9807562304151245
  0.1617852842659203  0.7435481368920673  0.8472738659343296
 -0.0985271699816656  0.9043191539262657 -0.0026566251593016
  0.8785703366923471  0.7562663926197810  0.0238174027266078
  0.8939601112002890  0.4346116156081890 -0.0123602694604131
  0.5767841782507092  1.0929659231410773  0.7914036443427706
  0.7983288742993422  0.8765995246911968  0.7977492510861444
  0.7952098954065723  0.9748916357790075  0.8756335352466538
  0.8071100182428261  0.9922486196486603  0.7525132360029717
  0.6786907317548539  1.0963769785405990  0.8648093974237850
 -0.0589303399948208  0.5446418663944332  1.0298965964566444
  0.4745832764130831  0.7749974173211160  0.6265747735427778
  0.5058797803376083  0.8794054316417275  0.5603664391726685
  0.5917307880898585  0.7875203074900514  0.5783081665242927
  0.5289128636464175  0.9372941376021677  0.8627586291391084
  0.2574860305561519  0.8235925559464919  0.8235467616674071
  0.6221441529820260  0.9622956957583073  0.9396063304095050
  0.9316413907843920  0.5252726108181018  0.9058942011608204
  0.5531151453425609  0.8705163504486908  0.0543966370827879
  0.5174004879346014  0.7517235155237042  0.0344343466223553
  0.6919958331385536  1.1020251940442831  0.7405062416880656
  0.2826722447921317  0.7083329242835373  0.8695337083199574
  0.6296631244045736  0.6304949462277084  0.6681008489557994
  0.7913661473609159  0.9425430311187830  0.2058300292221120
  0.7202708631902218  0.8525644997002260 -0.0023738167691841
  0.7495210954326857  0.7985854452037829  0.8912023869643895
  0.6024389733532424  0.6285545959688329  0.0130735535510232
  0.6896049086911475  0.5825692265809422  0.0913507371520182
  0.6336378525876264  0.6912465764135794  0.1180454502911464
  0.4600321752260190  0.8436861998378522 -0.0268937461106881
  0.1393746718385289  0.0298433481612868  0.1690772594896608
  0.3651978541164575  0.0513832986459396  0.1924705841487650
  0.1736713199107231  0.1739365919337481  0.6628331425961719
  0.2938224862407640  0.1692787201672114  0.6963181196568676
  0.2096532662118117  0.0903206963370391  0.7475589912294363
  0.3546146008380617  0.4642719700538548  0.8551182843013452
  0.2516239266879955  0.5301177560075409  0.8905270010546862
  0.2780879183280113  0.5130806259068199  0.7672074651066799
  0.2042282697808908  0.2424374382208486  0.9525170151415963
  0.0802377360406032  0.3104969042357364  0.8619991882338773
  0.0076269053332922  0.1331622176884837  0.9762628712222270
  0.0723861507132636  0.2809854734768674  0.7395116134866540
 -0.0991105550128690  0.1381630442845274  0.9123743715151329
  0.0821163511121644 -0.0749088207198975  0.7718606768780069
  0.6244112370876398  0.3132010651307353 -0.0725615978235578
 -0.0331205498137628 -0.1227022559781876  0.7910284585444789
  0.6505204491144858  0.5565450176520662  0.7682182198091612
  0.1829132212448291  0.1290962339795609  0.9085547601414774
 -0.0431539323145972  0.2436423403502382  0.9501119010880174
  0.3958547163518800  0.0873859923618951  0.0472819245356413
  0.4636653114710676 -0.0022005648765633  0.7318524383687256
  0.3564076397268888  0.0364982758489622  0.6802216425518343
  0.3624682518018134 -0.0792346400292308  0.7333415128386830
  0.3937112971395131  0.3035667909912816  0.9043025263394512
  0.4628634774267684  0.2297498689038422 -0.0232757355784793
  0.6000043565250883  0.4371036523519529 -0.0580270865275042
  0.1955060101809104  0.4045979020838201  0.1599809893655522
  0.2480287349543451  0.3960775846869747  0.0449593313558570
  0.2601204937279285  0.0798132420974689  0.2536000763185882
  0.3347676672846074  0.1714157934514797  0.2106698612542249
  0.3601451984585535  0.2832049369046603  0.0249334816276988
  0.3115439522943978  0.0215196218753244  0.9839770526311777
  0.6992721189573272  0.8898417565553230  0.1407514740975014
  0.0280417044896545  0.1053538254015793  0.6776395923583165
  0.2292903348659061  0.8012062257421945 -0.0330968701856059
  0.1083718397897497  0.1946794509498153  0.0759336364912151
  0.2409308546888397  0.2707195978871246  0.1235398025749551
  0.4504351684469507  0.1589782180176927  0.8059954589584811
  0.3574646904338182  0.0296061227740412  0.8289694636823155
  0.1705174266508381  0.9412012455126594  0.9128700316008240
 -0.0571589653586319  0.0536181076468581  0.1368111679707411
  0.8025354108317095  0.5462159166615674 -0.0242803642699366
  0.3207825414233447  0.3336945547208643  0.7300793844734413
  0.7665280860220084  0.6735173303936075  0.2583719039180601
  0.6788940466756985  0.9435106757194236  0.6254076519274044
  0.8236371211280582  0.6576749528891102  0.8616480351454514
  0.6339806798961416  0.7001948655309357  0.7969597759833014
  0.4802743595539975  0.7171581505813820  0.8437371585406117
  0.5578127850719916  0.8669690819155087  0.6988108752455217
 -0.2322900259067538  0.8255566978645178  0.3132803067603900
  0.6688218272089712  0.1531310630109116  0.3767611815713049
 -0.0020644297695777 -0.0287369996192752  0.2643823937984167
  0.4604730079844355  0.5151932911150171  0.2105989462287802
  0.1595765510271585  0.3823926340317509  0.3129844756198298
  0.2226781275794689  0.3970062685564394  0.8409661977015039
  0.3941155925658609  0.3744574573134755  0.1706220042573994
  0.8089203459144718  0.2995171634955172  0.0221683133965460
  0.6707655466374499  0.3776143600699511  0.0531853296722426
  0.8033400428184472  0.4822372348830523  0.5266491884851563
  0.4892922350998450  0.3072296089437203  0.5561818589154282
  0.3834485193068817  0.1893237071589656  0.5312085826835905
  0.0791876297239325  0.2437678331938842  0.3016569710186958
  0.9579804375162726  0.6969891932451514  0.3539500463947299
  0.2822032939390339  0.9235164647949277  0.3867290829780703
  0.2475581508745167  0.8552934397351442  0.5292475922567658
 -0.0691294589264653  0.7626643289977398  0.6189171639672423
  0.5555479838220979  0.0766932952699325  0.2906874587510099
 -0.1317546272442622  0.1991455186341017  0.4983114793535902
 -0.1248409952024210  0.2596308317795696  0.6476064581662712
  0.0197538830016984  0.7215203572715997  0.7475775580572978
 -0.0252395740404170  0.0214290905162803  0.8042690543737311
  0.0340035355220154  0.5715200906477882  0.2870023774514133
 -0.2208215787855910  0.4455524764194320  0.6806731326556320
