generated by phonopy
   1.0
     5.1304573400000004    0.0000000000000000    0.0226396800000000
     0.0000000000000000    5.2156640599999999    0.0000000000000000
    -0.9042575600000000    0.0000000000000000    5.2183907300000003
Zr O
   4    8
Direct
  0.7227595600000000  0.9570149000000000  0.7905985700000000
  0.7227595600000000  0.5429851000000000  0.2905985700000000
  0.2772404400000000  0.4570149000000000  0.7094014300000000
  0.2772404400000000  0.0429851000000000  0.2094014300000000
  0.0705798300000000  0.1625823000000000  0.8405808200000000
  0.0705798300000000  0.3374177000000000  0.3405808200000000
  0.5515168100000000  0.2578144800000000  0.0200396600000000
  0.4484831900000000  0.7578144800000000  0.4799603400000000
  0.5515168100000000  0.2421855200000000  0.5200396600000000
  0.4484831900000000  0.7421855200000000  0.9799603400000000
  0.9294201700000000  0.6625823000000000  0.6594191800000000
  0.9294201700000000  0.8374177000000000  0.1594191800000000
